
Gurobi 10.0.1 (linux64) logging started Mon May 29 15:18:10 2023

Set parameter LogFile to value "logFiles/N-1L-B/N-1L-13U-15F-23V-180D-relax/basic-05-29-2023, 15-18-H70-P50-O15.log"
Gurobi Optimizer version 10.0.1 build v10.0.1rc0 (linux64)

CPU model: Intel(R) Xeon(R) Gold 5115 CPU @ 2.40GHz, instruction set [SSE2|AVX|AVX2|AVX512]
Thread count: 20 physical cores, 40 logical processors, using up to 20 threads

Optimize a model with 80298 rows, 1108500 columns and 4877233 nonzeros
Model fingerprint: 0xcf727c04
Variable types: 401573 continuous, 706927 integer (706927 binary)
Coefficient statistics:
  Matrix range     [1e+00, 2e+05]
  Objective range  [4e+01, 3e+07]
  Bounds range     [1e+00, 1e+00]
  RHS range        [1e+00, 2e+06]

Loaded user MIP start with objective 1.2845e+09

Presolve removed 44682 rows and 20895 columns (presolve time = 5s) ...
Presolve removed 44695 rows and 25089 columns (presolve time = 10s) ...
Presolve removed 44695 rows and 25101 columns (presolve time = 15s) ...
Presolve removed 44704 rows and 25317 columns (presolve time = 20s) ...
Presolve removed 44667 rows and 25280 columns
Presolve time: 23.99s
Presolved: 35631 rows, 1083220 columns, 4452134 nonzeros
Variable types: 388863 continuous, 694357 integer (694357 binary)
Deterministic concurrent LP optimizer: primal simplex, dual simplex, and barrier
Showing barrier log only...

Root barrier log...

Ordering time: 1.27s

Barrier statistics:
 AA' NZ     : 2.404e+06
 Factor NZ  : 7.356e+06 (roughly 500 MB of memory)
 Factor Ops : 9.933e+09 (less than 1 second per iteration)
 Threads    : 18

                  Objective                Residual
Iter       Primal          Dual         Primal    Dual     Compl     Time
   0  -2.52922742e+16  4.88623989e+13  1.17e+09 4.77e+06  7.88e+11    33s
   1  -6.18100932e+15  5.65758926e+13  2.87e+08 1.77e+06  1.98e+11    34s
   2  -5.81817847e+14  4.55937059e+13  2.72e+07 1.07e+05  1.90e+10    34s
   3  -5.15691419e+13  2.65189839e+13  2.41e+06 1.68e-08  1.70e+09    35s
   4  -2.41347505e+13  1.27532077e+13  1.13e+06 1.48e-08  8.05e+08    35s
   5  -6.76522645e+12  1.11182216e+13  3.16e+05 1.16e-08  2.31e+08    36s
   6  -2.85908777e+12  9.62022283e+12  1.34e+05 1.01e-08  9.93e+07    36s
   7  -8.34436380e+11  8.65786807e+12  3.89e+04 1.13e-08  3.13e+07    36s
   8  -6.91765070e+11  6.79269052e+12  3.23e+04 9.95e-09  2.47e+07    37s
   9  -5.89256073e+11  5.29794353e+12  2.75e+04 1.30e-08  1.99e+07    37s
  10  -4.80451755e+11  4.34276701e+12  2.24e+04 1.02e-08  1.56e+07    37s
  11  -2.01706138e+11  3.37309014e+12  9.45e+03 9.90e-09  6.99e+06    38s
  12  -1.06342300e+11  1.98831544e+12  5.02e+03 1.22e-08  3.50e+06    38s
  13  -7.67361844e+10  1.15969404e+12  3.64e+03 1.43e-08  2.23e+06    39s
  14  -2.92592380e+10  4.52924154e+11  1.43e+03 1.68e-08  7.84e+05    39s
  15  -9.29854834e+09  2.32668975e+11  5.05e+02 1.56e-08  2.86e+05    40s
  16  -1.43073836e+09  1.03425266e+11  1.40e+02 1.64e-08  9.11e+04    40s
  17  -1.12856253e+09  6.63931268e+10  1.26e+02 1.75e-07  6.81e+04    40s
  18   2.68481867e+08  5.19876136e+10  6.05e+01 2.06e-07  4.14e+04    41s
  19   4.00093736e+08  4.33965449e+10  5.44e+01 2.03e-07  3.55e+04    41s
  20   4.95768142e+08  4.09040187e+10  5.00e+01 1.80e-07  3.30e+04    42s
  21   1.04539048e+09  3.22474063e+10  2.45e+01 2.56e-07  2.15e+04    42s
  22   1.11494473e+09  2.59907538e+10  2.13e+01 2.83e-07  1.77e+04    43s
  23   1.28432386e+09  2.09815027e+10  1.38e+01 2.22e-07  1.31e+04    44s
  24   1.34754210e+09  1.60802721e+10  1.10e+01 1.27e-07  1.01e+04    44s
  25   1.42359452e+09  1.22832700e+10  7.77e+00 1.86e-07  7.41e+03    45s
  26   1.48036680e+09  1.06864840e+10  5.39e+00 2.18e-07  5.94e+03    46s
  27   1.50775678e+09  7.10111887e+09  4.29e+00 3.00e-07  3.98e+03    46s
  28   1.52833418e+09  6.05211259e+09  3.48e+00 2.87e-07  3.23e+03    47s
  29   1.53694892e+09  6.04129120e+09  3.27e+00 2.77e-07  3.13e+03    48s
  30   1.55178324e+09  5.69661675e+09  3.04e+00 2.24e-07  2.89e+03    48s
  31   1.59145182e+09  5.33571720e+09  2.55e+00 2.70e-07  2.52e+03    49s
  32   1.66107662e+09  5.32685200e+09  1.63e+00 2.68e-07  2.19e+03    50s
  33   1.67726561e+09  4.09511386e+09  1.45e+00 2.95e-07  1.47e+03    50s
  34   1.69390491e+09  3.84798722e+09  1.28e+00 2.34e-07  1.29e+03    51s
  35   1.70018227e+09  3.59060332e+09  1.22e+00 2.32e-07  1.14e+03    51s
  36   1.71824380e+09  2.85362445e+09  1.05e+00 2.88e-07  6.93e+02    52s
  37   1.74048896e+09  2.62991523e+09  8.71e-01 2.44e-07  5.31e+02    53s
  38   1.78306570e+09  2.39088483e+09  6.28e-01 2.73e-07  3.52e+02    53s
  39   1.82864858e+09  2.35876386e+09  4.39e-01 2.00e-07  2.93e+02    54s
  40   1.84483799e+09  2.31562324e+09  3.87e-01 2.93e-07  2.57e+02    55s
  41   1.85897274e+09  2.23428752e+09  3.43e-01 2.37e-07  2.04e+02    55s
  42   1.86177120e+09  2.20413313e+09  3.34e-01 2.36e-07  1.87e+02    56s
  43   1.87136132e+09  2.17554963e+09  3.06e-01 2.48e-07  1.65e+02    57s
  44   1.87848794e+09  2.14780179e+09  2.85e-01 2.46e-07  1.46e+02    57s
  45   1.88529480e+09  2.13948850e+09  2.66e-01 1.80e-07  1.37e+02    58s
  46   1.88892386e+09  2.12157871e+09  2.55e-01 2.09e-07  1.26e+02    58s
  47   1.90552121e+09  2.10190133e+09  2.10e-01 1.53e-07  1.04e+02    59s
  48   1.91406706e+09  2.08718061e+09  1.87e-01 2.16e-07  9.17e+01    60s
  49   1.91783123e+09  2.07629640e+09  1.78e-01 1.81e-07  8.39e+01    60s
  50   1.92279194e+09  2.06884384e+09  1.65e-01 1.90e-07  7.71e+01    61s
  51   1.92754457e+09  2.06048566e+09  1.54e-01 2.39e-07  7.01e+01    62s
  52   1.92997694e+09  2.05750987e+09  1.49e-01 2.33e-07  6.72e+01    62s
  53   1.93264070e+09  2.05303716e+09  1.42e-01 1.50e-07  6.34e+01    63s
  54   1.93812835e+09  2.04843050e+09  1.29e-01 3.09e-07  5.78e+01    63s
  55   1.94260186e+09  2.04266886e+09  1.18e-01 2.55e-07  5.23e+01    64s
  56   1.94703278e+09  2.03696389e+09  1.08e-01 2.37e-07  4.69e+01    65s
  57   1.94889676e+09  2.03179248e+09  1.04e-01 2.11e-07  4.32e+01    66s
  58   1.95782806e+09  2.02731820e+09  8.60e-02 2.57e-07  3.61e+01    66s
  59   1.96324379e+09  2.02507168e+09  7.57e-02 2.26e-07  3.20e+01    67s
  60   1.96905067e+09  2.02263212e+09  6.46e-02 1.88e-07  2.76e+01    67s
  61   1.97336430e+09  2.01896768e+09  5.65e-02 2.20e-07  2.35e+01    68s
  62   1.97894257e+09  2.01673926e+09  4.61e-02 1.81e-07  1.94e+01    69s
  63   1.98448453e+09  2.01390855e+09  3.62e-02 1.91e-07  1.51e+01    69s
  64   1.98898517e+09  2.01234307e+09  2.81e-02 1.97e-07  1.19e+01    70s
  65   1.99168413e+09  2.01159791e+09  2.33e-02 2.10e-07  1.01e+01    71s
  66   1.99524245e+09  2.00994415e+09  1.70e-02 2.11e-07  7.46e+00    71s
  67   1.99692330e+09  2.00936698e+09  1.42e-02 1.85e-07  6.30e+00    72s
  68   1.99793647e+09  2.00890382e+09  1.26e-02 2.43e-07  5.55e+00    73s
  69   1.99919482e+09  2.00816507e+09  1.05e-02 2.02e-07  4.55e+00    73s
  70   2.00024873e+09  2.00765911e+09  8.80e-03 1.22e-07  3.76e+00    74s
  71   2.00098195e+09  2.00730064e+09  7.64e-03 1.56e-07  3.21e+00    75s
  72   2.00175665e+09  2.00708665e+09  6.48e-03 1.70e-07  2.71e+00    75s
  73   2.00312367e+09  2.00681323e+09  4.36e-03 1.29e-07  1.87e+00    76s
  74   2.00366446e+09  2.00664917e+09  3.53e-03 1.43e-07  1.51e+00    76s
  75   2.00417293e+09  2.00651235e+09  2.75e-03 2.35e-07  1.18e+00    77s
  76   2.00467630e+09  2.00643303e+09  2.00e-03 1.70e-07  8.87e-01    78s
  77   2.00542010e+09  2.00612200e+09  9.05e-04 1.48e-07  3.58e-01    78s
  78   2.00572484e+09  2.00604159e+09  4.23e-04 1.30e-07  1.62e-01    79s
  79   2.00582943e+09  2.00603065e+09  2.64e-04 1.83e-07  1.03e-01    80s
  80   2.00590789e+09  2.00602627e+09  1.49e-04 1.73e-07  6.02e-02    80s
  81   2.00594691e+09  2.00602141e+09  8.96e-05 8.86e-08  3.77e-02    81s
  82   2.00595682e+09  2.00602009e+09  7.40e-05 1.53e-07  3.20e-02    81s
  83   2.00597182e+09  2.00601538e+09  5.19e-05 1.07e-07  2.20e-02    81s
  84   2.00598821e+09  2.00601102e+09  2.77e-05 1.53e-07  1.16e-02    82s
  85   2.00600231e+09  2.00600895e+09  7.61e-06 1.91e-07  3.34e-03    82s
  86   2.00600673e+09  2.00600805e+09  1.12e-06 2.45e-07  6.51e-04    83s
  87   2.00600713e+09  2.00600763e+09  5.93e-07 2.56e-07  2.52e-04    83s
  88   2.00600758e+09  2.00600760e+09  7.45e-08 2.14e-07  1.42e-05    84s
  89   2.00600760e+09  2.00600760e+09  1.80e-07 2.23e-07  1.38e-07    84s
  90   2.00600760e+09  2.00600760e+09  1.05e-09 2.39e-07  1.50e-10    84s

Barrier solved model in 90 iterations and 84.51 seconds (63.49 work units)
Optimal objective 2.00600760e+09


Root crossover log...

   30823 DPushes remaining with DInf 0.0000000e+00                85s
       0 DPushes remaining with DInf 0.0000000e+00                86s

     998 PPushes remaining with PInf 0.0000000e+00                86s
      13 PPushes remaining with PInf 2.9788108e-02                86s

  Push phase complete: Pinf 2.9788108e-02, Dinf 5.0281576e+03     86s


Root simplex log...

Iteration    Objective       Primal Inf.    Dual Inf.      Time
   31811    2.0060076e+09   1.856049e+01   0.000000e+00     86s
   31864    2.0060076e+09   0.000000e+00   0.000000e+00     87s
Concurrent spin time: 0.02s

Solved with barrier
   31931    2.0060076e+09   0.000000e+00   0.000000e+00     88s
Extra simplex iterations after uncrush: 67

Root relaxation: objective 2.006008e+09, 31931 iterations, 61.55 seconds (45.50 work units)
Total elapsed time = 90.15s

    Nodes    |    Current Node    |     Objective Bounds      |     Work
 Expl Unexpl |  Obj  Depth IntInf | Incumbent    BestBd   Gap | It/Node Time

     0     0 2.0060e+09    0  399 1.2845e+09 2.0060e+09  56.2%     -   97s
H    0     0                    1.977642e+09 2.0060e+09  1.43%     -  122s
H    0     0                    1.978019e+09 2.0060e+09  1.41%     -  131s
     0     0 2.0058e+09    0  428 1.9780e+09 2.0058e+09  1.41%     -  343s
H    0     0                    1.978639e+09 2.0058e+09  1.37%     -  369s
     0     0 2.0058e+09    0  424 1.9786e+09 2.0058e+09  1.37%     -  370s
     0     0 2.0058e+09    0  455 1.9786e+09 2.0058e+09  1.37%     -  496s
H    0     0                    1.979245e+09 2.0058e+09  1.34%     -  529s
     0     0 2.0058e+09    0  457 1.9792e+09 2.0058e+09  1.34%     -  548s
     0     0 2.0058e+09    0  452 1.9792e+09 2.0058e+09  1.34%     -  635s
H    0     0                    1.981023e+09 2.0058e+09  1.25%     -  676s
     0     0 2.0058e+09    0  454 1.9810e+09 2.0058e+09  1.25%     -  692s
     0     0 2.0058e+09    0  442 1.9810e+09 2.0058e+09  1.25%     -  794s
     0     0 2.0058e+09    0  453 1.9810e+09 2.0058e+09  1.25%     -  840s
     0     0 2.0058e+09    0  468 1.9810e+09 2.0058e+09  1.25%     -  936s
     0     0 2.0058e+09    0  462 1.9810e+09 2.0058e+09  1.25%     -  966s
     0     0 2.0058e+09    0  438 1.9810e+09 2.0058e+09  1.25%     - 1006s
     0     0 2.0058e+09    0  481 1.9810e+09 2.0058e+09  1.25%     - 1068s
     0     0 2.0057e+09    0  491 1.9810e+09 2.0057e+09  1.25%     - 1159s
H    0     0                    1.982961e+09 2.0057e+09  1.15%     - 1186s
     0     0 2.0057e+09    0  472 1.9830e+09 2.0057e+09  1.15%     - 1243s
     0     0 2.0057e+09    0  467 1.9830e+09 2.0057e+09  1.15%     - 1256s
     0     0 2.0057e+09    0  483 1.9830e+09 2.0057e+09  1.15%     - 1318s
H    0     0                    1.983091e+09 2.0057e+09  1.14%     - 1349s
     0     0 2.0057e+09    0  528 1.9831e+09 2.0057e+09  1.14%     - 1396s
     0     0 2.0057e+09    0  514 1.9831e+09 2.0057e+09  1.14%     - 1414s
     0     0 2.0057e+09    0  474 1.9831e+09 2.0057e+09  1.14%     - 1460s
     0     0 2.0057e+09    0  488 1.9831e+09 2.0057e+09  1.14%     - 1493s
     0     0 2.0057e+09    0  464 1.9831e+09 2.0057e+09  1.14%     - 1509s
     0     0 2.0057e+09    0  468 1.9831e+09 2.0057e+09  1.14%     - 1542s
     0     0 2.0057e+09    0  487 1.9831e+09 2.0057e+09  1.14%     - 1564s
     0     0 2.0057e+09    0  482 1.9831e+09 2.0057e+09  1.14%     - 1590s
     0     2 2.0057e+09    0  477 1.9831e+09 2.0057e+09  1.14%     - 2046s
     1     4 2.0057e+09    1  471 1.9831e+09 2.0057e+09  1.14%  7774 2283s
     3     8 2.0057e+09    2  476 1.9831e+09 2.0057e+09  1.14%  7259 2349s
     7    16 2.0057e+09    3  507 1.9831e+09 2.0057e+09  1.14%  3837 2649s
    12    16 2.0057e+09    3  479 1.9831e+09 2.0057e+09  1.14%  4205 2650s
    15    32 2.0057e+09    4  493 1.9831e+09 2.0057e+09  1.14%  4209 3166s
H   31    50                    1.984348e+09 2.0057e+09  1.08%  6032 10801s
H   32    50                    1.984527e+09 2.0057e+09  1.07% 20706 10803s

Cutting planes:
  Cover: 7
  Implied bound: 59
  Clique: 1
  MIR: 76
  StrongCG: 1
  Flow cover: 23
  Network: 3
  RLT: 91
  Relax-and-lift: 21

Explored 49 nodes (5937460 simplex iterations) in 10804.68 seconds (9899.14 work units)
Thread count was 20 (of 40 available processors)

Solution count 10: 1.98453e+09 1.98435e+09 1.98309e+09 ... 1.2845e+09

Time limit reached
Best objective 1.984527375164e+09, best bound 2.005735855242e+09, gap 1.0687%
Gurobi Optimizer version 10.0.1 build v10.0.1rc0 (linux64)

CPU model: Intel(R) Xeon(R) Gold 5115 CPU @ 2.40GHz, instruction set [SSE2|AVX|AVX2|AVX512]
Thread count: 20 physical cores, 40 logical processors, using up to 20 threads

Optimize a model with 127387 rows, 1619594 columns and 10450265 nonzeros
Model fingerprint: 0xf93fc8ff
Variable types: 123535 continuous, 1496059 integer (1496059 binary)
Coefficient statistics:
  Matrix range     [1e+00, 2e+05]
  Objective range  [4e+01, 3e+07]
  Bounds range     [9e-13, 3e+05]
  RHS range        [1e+00, 3e+06]

User MIP start did not produce a new incumbent solution
User MIP start violates constraint flow[RIV,NGBON,90] by 1.000000000
Processed MIP start in 1.44 seconds (0.47 work units)

Presolve removed 102597 rows and 1039905 columns (presolve time = 6s) ...
Presolve removed 103481 rows and 1043206 columns (presolve time = 10s) ...
Presolve removed 103542 rows and 1043753 columns (presolve time = 15s) ...
Presolve removed 103562 rows and 1043753 columns (presolve time = 20s) ...
Presolve removed 103512 rows and 1043703 columns
Presolve time: 20.54s
Presolved: 23875 rows, 575891 columns, 2675515 nonzeros
Variable types: 80513 continuous, 495378 integer (495314 binary)
Deterministic concurrent LP optimizer: primal simplex, dual simplex, and barrier
Showing barrier log only...

Root barrier log...

Ordering time: 0.70s

Barrier statistics:
 AA' NZ     : 1.366e+06
 Factor NZ  : 3.645e+06 (roughly 300 MB of memory)
 Factor Ops : 2.950e+09 (less than 1 second per iteration)
 Threads    : 17

                  Objective                Residual
Iter       Primal          Dual         Primal    Dual     Compl     Time
   0  -8.94897225e+15  6.91023936e+12  8.01e+08 6.71e+05  1.48e+11    32s
   1  -2.44000773e+15  8.55130111e+12  2.19e+08 1.07e+06  4.06e+10    33s
   2  -6.56924113e+14  8.03569969e+12  5.96e+07 4.64e+05  1.12e+10    33s
   3  -3.94297874e+13  6.16502708e+12  3.57e+06 5.47e+03  6.94e+08    33s
   4  -1.30519832e+13  3.49416802e+12  1.18e+06 4.80e+02  2.31e+08    34s
   5  -4.43383665e+12  2.20210595e+12  4.02e+05 2.20e+02  7.91e+07    34s
   6  -1.88977598e+12  1.66647968e+12  1.71e+05 1.13e+02  3.46e+07    34s
   7  -1.16582642e+12  1.54285222e+12  1.06e+05 9.28e+01  2.17e+07    34s
   8  -8.99784556e+11  1.23508052e+12  8.14e+04 4.68e+01  1.66e+07    34s
   9  -3.16371446e+11  1.10311515e+12  2.87e+04 2.99e+01  6.33e+06    35s
  10  -2.50935253e+11  9.03566730e+11  2.28e+04 1.76e+01  4.86e+06    35s
  11  -8.39531152e+10  6.19630041e+11  7.77e+03 5.46e+00  1.81e+06    35s
  12  -7.08710717e+10  5.30153902e+11  6.59e+03 4.10e+00  1.49e+06    35s
  13  -2.90679814e+10  4.09850984e+11  2.83e+03 2.61e+00  7.70e+05    36s
  14  -1.56703715e+10  2.02351958e+11  1.63e+03 7.79e-01  3.76e+05    36s
  15  -4.85911007e+09  1.07724056e+11  6.56e+02 2.57e-01  1.63e+05    36s
  16  -1.23368978e+09  6.42024070e+10  3.31e+02 1.16e-01  8.64e+04    36s
  17   8.20725704e+08  4.24621129e+10  1.47e+02 7.08e-02  4.84e+04    37s
  18   1.44691608e+09  3.19101418e+10  9.13e+01 5.15e-02  3.37e+04    37s
  19   1.86794389e+09  2.16486301e+10  5.44e+01 3.40e-02  2.13e+04    37s
  20   2.13686415e+09  1.52735932e+10  3.10e+01 2.20e-02  1.38e+04    37s
  21   2.30824686e+09  1.28677304e+10  1.61e+01 1.84e-02  1.04e+04    38s
  22   2.35686058e+09  1.08017875e+10  1.19e+01 1.51e-02  8.29e+03    38s
  23   2.37654944e+09  8.58396183e+09  1.00e+01 1.18e-02  6.31e+03    38s
  24   2.38770094e+09  7.94746666e+09  8.94e+00 1.08e-02  5.69e+03    38s
  25   2.39946487e+09  7.06755362e+09  7.79e+00 9.47e-03  4.87e+03    39s
  26   2.41278662e+09  6.61722213e+09  6.59e+00 8.52e-03  4.37e+03    39s
  27   2.43668525e+09  6.12436951e+09  5.23e+00 7.41e-03  3.80e+03    39s
  28   2.45781106e+09  5.30725492e+09  4.08e+00 3.10e-03  2.94e+03    40s
  29   2.46312409e+09  5.22195218e+09  3.91e+00 2.82e-03  2.83e+03    40s
  30   2.47486388e+09  4.74175039e+09  3.26e+00 1.28e-03  2.32e+03    40s
  31   2.48354364e+09  4.40912469e+09  2.58e+00 1.04e-03  1.93e+03    41s
  32   2.48606423e+09  4.34027303e+09  2.45e+00 8.12e-04  1.85e+03    41s
  33   2.49587580e+09  4.18192501e+09  2.05e+00 5.13e-04  1.66e+03    41s
  34   2.50484979e+09  3.76265526e+09  1.65e+00 2.61e-08  1.23e+03    42s
  35   2.51143963e+09  3.38128001e+09  1.46e+00 1.91e-08  8.47e+02    42s
  36   2.51424809e+09  3.30136912e+09  1.31e+00 2.00e-08  7.60e+02    42s
  37   2.52271331e+09  3.14119853e+09  9.63e-01 2.14e-08  5.83e+02    42s
  38   2.52923207e+09  3.03715135e+09  6.77e-01 1.91e-08  4.68e+02    43s
  39   2.53342627e+09  2.85551943e+09  5.32e-01 1.44e-08  2.93e+02    43s
  40   2.53564005e+09  2.83883242e+09  4.54e-01 1.30e-08  2.74e+02    43s
  41   2.53903493e+09  2.80740455e+09  3.37e-01 1.21e-08  2.40e+02    44s
  42   2.54234163e+09  2.77334400e+09  2.35e-01 1.02e-08  2.04e+02    44s
  43   2.54399952e+09  2.72999456e+09  1.93e-01 9.78e-09  1.64e+02    44s
  44   2.54500078e+09  2.67428994e+09  1.69e-01 8.38e-09  1.13e+02    45s
  45   2.54546349e+09  2.64705399e+09  1.63e-01 7.45e-09  8.88e+01    45s
  46   2.54882447e+09  2.62917823e+09  1.12e-01 9.31e-09  6.99e+01    45s
  47   2.54958534e+09  2.62137043e+09  1.03e-01 7.45e-09  6.23e+01    46s
  48   2.55041570e+09  2.61390956e+09  9.38e-02 6.98e-09  5.50e+01    46s
  49   2.55195023e+09  2.60590509e+09  7.90e-02 6.98e-09  4.67e+01    46s
  50   2.55345205e+09  2.60224740e+09  6.80e-02 5.12e-09  4.22e+01    47s
  51   2.55428513e+09  2.59906827e+09  6.26e-02 6.05e-09  3.87e+01    47s
  52   2.55527487e+09  2.59624453e+09  5.76e-02 5.12e-09  3.54e+01    47s
  53   2.55632383e+09  2.59444073e+09  5.23e-02 6.98e-09  3.29e+01    48s
  54   2.55803526e+09  2.59072598e+09  4.41e-02 5.59e-09  2.82e+01    48s
  55   2.55880460e+09  2.58977020e+09  4.08e-02 6.52e-09  2.67e+01    48s
  56   2.56003483e+09  2.58691640e+09  3.62e-02 5.12e-09  2.32e+01    49s
  57   2.56049984e+09  2.58524740e+09  3.43e-02 6.52e-09  2.13e+01    49s
  58   2.56208983e+09  2.58210157e+09  2.79e-02 6.05e-09  1.72e+01    49s
  59   2.56324533e+09  2.57980621e+09  2.31e-02 5.12e-09  1.43e+01    50s
  60   2.56383287e+09  2.57759000e+09  2.08e-02 4.19e-09  1.18e+01    50s
  61   2.56478665e+09  2.57658476e+09  1.73e-02 4.66e-09  1.01e+01    50s
  62   2.56501185e+09  2.57608067e+09  1.65e-02 5.59e-09  9.51e+00    50s
  63   2.56548525e+09  2.57542149e+09  1.47e-02 6.05e-09  8.54e+00    51s
  64   2.56653268e+09  2.57480041e+09  1.10e-02 6.98e-09  7.11e+00    51s
  65   2.56708893e+09  2.57414268e+09  9.41e-03 6.92e-08  6.06e+00    51s
  66   2.56727730e+09  2.57377290e+09  8.81e-03 2.24e-08  5.58e+00    52s
  67   2.56765298e+09  2.57365208e+09  7.78e-03 5.06e-08  5.15e+00    52s
  68   2.56846400e+09  2.57317095e+09  5.61e-03 4.66e-09  4.05e+00    52s
  69   2.56869434e+09  2.57261690e+09  5.06e-03 4.19e-09  3.37e+00    53s
  70   2.56891051e+09  2.57243544e+09  4.55e-03 3.73e-09  3.03e+00    53s
  71   2.56950510e+09  2.57201879e+09  3.13e-03 3.73e-09  2.16e+00    53s
  72   2.56958942e+09  2.57192898e+09  2.93e-03 3.73e-09  2.01e+00    54s
  73   2.56973033e+09  2.57183588e+09  2.59e-03 4.66e-09  1.81e+00    54s
  74   2.56988410e+09  2.57179531e+09  2.25e-03 4.66e-09  1.64e+00    54s
  75   2.57015889e+09  2.57158301e+09  1.64e-03 3.73e-09  1.22e+00    55s
  76   2.57034756e+09  2.57137074e+09  1.25e-03 2.33e-09  8.79e-01    55s
  77   2.57053807e+09  2.57125479e+09  8.49e-04 2.79e-09  6.16e-01    55s
  78   2.57067544e+09  2.57110280e+09  5.66e-04 2.33e-09  3.67e-01    56s
  79   2.57078745e+09  2.57105670e+09  3.40e-04 2.79e-09  2.31e-01    56s
  80   2.57085117e+09  2.57103743e+09  2.13e-04 3.26e-09  1.60e-01    56s
  81   2.57091009e+09  2.57100376e+09  9.87e-05 2.79e-09  8.05e-02    56s
  82   2.57093508e+09  2.57099358e+09  5.10e-05 2.33e-09  5.03e-02    57s
  83   2.57095260e+09  2.57097925e+09  1.82e-05 2.33e-09  2.30e-02    57s
  84   2.57096101e+09  2.57096844e+09  3.37e-06 2.79e-09  6.41e-03    57s
  85   2.57096291e+09  2.57096409e+09  4.83e-07 4.19e-09  1.02e-03    57s
  86   2.57096318e+09  2.57096339e+09  1.26e-07 4.66e-09  1.82e-04    57s
  87   2.57096327e+09  2.57096330e+09  2.62e-08 4.19e-09  2.50e-05    58s
  88   2.57096329e+09  2.57096329e+09  1.85e-09 4.19e-09  1.56e-06    58s
  89   2.57096329e+09  2.57096329e+09  4.55e-10 3.73e-09  8.99e-10    58s

Barrier solved model in 89 iterations and 58.36 seconds (39.76 work units)
Optimal objective 2.57096329e+09


Root crossover log...

   19721 DPushes remaining with DInf 0.0000000e+00                59s
       0 DPushes remaining with DInf 0.0000000e+00                59s

     554 PPushes remaining with PInf 0.0000000e+00                59s
       3 PPushes remaining with PInf 8.8410462e+00                59s

  Push phase complete: Pinf 8.8410462e+00, Dinf 1.9507762e+04     59s


Root simplex log...

Iteration    Objective       Primal Inf.    Dual Inf.      Time
   18941    2.5709633e+09   0.000000e+00   1.950776e+04     59s
   19024    2.5709633e+09   0.000000e+00   0.000000e+00     60s
Concurrent spin time: 0.01s

Solved with barrier
   19024    2.5709633e+09   0.000000e+00   0.000000e+00     60s

Root relaxation: objective 2.570963e+09, 19024 iterations, 31.26 seconds (20.42 work units)
Another try with MIP start

    Nodes    |    Current Node    |     Objective Bounds      |     Work
 Expl Unexpl |  Obj  Depth IntInf | Incumbent    BestBd   Gap | It/Node Time

     0     0 2.5710e+09    0  371          - 2.5710e+09      -     -   64s
H    0     0                    2.555331e+09 2.5710e+09  0.61%     -   83s

Explored 1 nodes (28485 simplex iterations) in 83.74 seconds (62.78 work units)
Thread count was 20 (of 40 available processors)

Solution count 2: 2.55533e+09 2.55533e+09 

Optimal solution found (tolerance 1.00e-02)
Best objective 2.555331415632e+09, best bound 2.570963287905e+09, gap 0.6117%
Gurobi Optimizer version 10.0.1 build v10.0.1rc0 (linux64)

CPU model: Intel(R) Xeon(R) Gold 5115 CPU @ 2.40GHz, instruction set [SSE2|AVX|AVX2|AVX512]
Thread count: 20 physical cores, 40 logical processors, using up to 20 threads

Optimize a model with 127317 rows, 1630552 columns and 10076158 nonzeros
Model fingerprint: 0xf33511cc
Variable types: 2578 continuous, 1627974 integer (1627974 binary)
Coefficient statistics:
  Matrix range     [1e+00, 2e+05]
  Objective range  [4e+01, 3e+07]
  Bounds range     [1e+00, 3e+05]
  RHS range        [1e+00, 3e+06]

Processing user MIP start: 0 nodes explored in subMIP, total elapsed time 5s
User MIP start produced solution with objective 2.394e+09 (5.50s)
User MIP start produced solution with objective 2.57737e+09 (6.39s)
User MIP start produced solution with objective 2.5825e+09 (8.69s)
Processing user MIP start: 0 nodes explored in subMIP, total elapsed time 10s
User MIP start produced solution with objective 2.58863e+09 (14.17s)
Processing user MIP start: 0 nodes explored in subMIP, total elapsed time 15s
Processing user MIP start: 0 nodes explored in subMIP, total elapsed time 20s
Processing user MIP start: 32 nodes explored in subMIP, total elapsed time 25s
Processing user MIP start: 74 nodes explored in subMIP, total elapsed time 30s
Processing user MIP start: 127 nodes explored in subMIP, total elapsed time 35s
Processing user MIP start: 229 nodes explored in subMIP, total elapsed time 40s
Processing user MIP start: 361 nodes explored in subMIP, total elapsed time 45s
Processing user MIP start: 426 nodes explored in subMIP, total elapsed time 50s
User MIP start produced solution with objective 2.58947e+09 (52.53s)
Processing user MIP start: 427 nodes explored in subMIP, total elapsed time 55s
User MIP start produced solution with objective 2.58947e+09 (59.32s)
Loaded user MIP start with objective 2.58947e+09
Processed MIP start in 59.25 seconds (68.68 work units)

Presolve removed 124558 rows and 1601299 columns
Presolve time: 3.92s
Presolved: 2759 rows, 29253 columns, 127693 nonzeros
Variable types: 499 continuous, 28754 integer (28754 binary)
Deterministic concurrent LP optimizer: primal and dual simplex
Showing first log only...


Root simplex log...

Iteration    Objective       Primal Inf.    Dual Inf.      Time
       0    2.0013925e+09   5.383052e+04   1.395765e+13     64s
    3775    2.4507068e+09   0.000000e+00   1.411873e+10     64s
   15301    2.5989831e+09   0.000000e+00   0.000000e+00     64s
Concurrent spin time: 0.00s

Solved with primal simplex
   15301    2.5989831e+09   0.000000e+00   0.000000e+00     64s

Root relaxation: objective 2.598983e+09, 15301 iterations, 0.60 seconds (0.60 work units)

    Nodes    |    Current Node    |     Objective Bounds      |     Work
 Expl Unexpl |  Obj  Depth IntInf | Incumbent    BestBd   Gap | It/Node Time

     0     0 2.5990e+09    0   60 2.5895e+09 2.5990e+09  0.37%     -   64s

Explored 1 nodes (15623 simplex iterations) in 64.34 seconds (72.22 work units)
Thread count was 20 (of 40 available processors)

Solution count 6: 2.58947e+09 2.58947e+09 2.58863e+09 ... 2.394e+09

Optimal solution found (tolerance 1.00e-02)
Best objective 2.589466622540e+09, best bound 2.598983134932e+09, gap 0.3675%
